; benchmark generated from python API
(set-info :status unknown)
(declare-fun L_0 () Real)
(declare-fun S_1 () Real)
(declare-fun A_0 () Real)
(declare-fun S_4 () Real)
(declare-fun S_5 () Real)
(declare-fun S_2 () Real)
(declare-fun S_3 () Real)
(declare-fun A_4 () Real)
(declare-fun L_2 () Real)
(declare-fun S_0 () Real)
(declare-fun A_5 () Real)
(declare-fun A_3 () Real)
(declare-fun A_2 () Real)
(declare-fun A_1 () Real)
(declare-fun L_1 () Real)
(assert
 (let (($x4034 (<= (+ (* (- (/ 1.0 2.0)) S_4) (* (- 1.0) A_0) (* (/ 3.0 2.0) S_1) L_0) 0.0)))
 (let (($x39 (>= L_0 0.0)))
 (let ((?x413 (* (- 1.0) S_2)))
 (let ((?x451 (* (- 1.0) A_5)))
 (let ((?x442 (* (- 1.0) A_2)))
 (let (($x17160 (<= (+ (* (- 1.0) L_1) A_1 ?x413) 0.0)))
 (let (($x66 (= L_2 L_1)))
 (let (($x122403 (or $x66 $x17160 (<= (+ S_5 ?x442 L_2 ?x451 A_3 ?x413 S_0) 0.0))))
 (let ((?x448 (* (- 1.0) A_4)))
 (let ((?x2262 (* (- (/ 1.0 2.0)) S_4)))
 (let ((?x6841 (* (/ 1.0 2.0) A_1)))
 (let ((?x6802 (* (- (/ 1.0 2.0)) L_1)))
 (let (($x125916 (or (<= (+ S_5 (* (- (/ 1.0 3.0)) S_4) L_2 ?x448 (* (/ 1.0 3.0) S_0)) 0.0) (<= (+ ?x6802 ?x6841 S_5 ?x2262 L_2 ?x448) 0.0))))
 (let ((?x1167 (* 3.0 L_2)))
 (let ((?x1170 (* (- 3.0) A_2)))
 (let ((?x427 (* (- 1.0) S_4)))
 (let ((?x1422 (* 3.0 S_5)))
 (let (($x43643 (<= (+ ?x1422 ?x427 ?x1170 ?x1167 (* (- 3.0) A_5) (* 3.0 A_3) S_0) 0.0)))
 (let (($x124400 (or $x66 (<= (+ ?x6802 ?x6841 S_5 ?x2262 ?x442 L_2 ?x451 A_3) 0.0) $x43643)))
 (let (($x17572 (<= (+ (* (- 2.0) L_1) (* 2.0 A_1) S_4 (* (- 3.0) S_3)) 0.0)))
 (let (($x56358 (or (<= (+ (* (/ 1.0 2.0) S_4) (* (- 1.0) S_3) (* (/ 1.0 2.0) S_0)) 0.0) $x17572)))
 (let (($x124441 (or $x66 (<= (+ S_5 ?x442 L_2 ?x451 A_3 (* (- 1.0) S_3) S_1) 0.0))))
 (let ((?x420 (* (- 1.0) S_3)))
 (let ((?x282 (* (- 1.0) L_1)))
 (let ((?x1267 (* 2.0 L_2)))
 (let ((?x1266 (* (- 2.0) A_2)))
 (let ((?x2104 (* 2.0 S_5)))
 (let (($x43633 (<= (+ ?x2104 ?x1266 ?x1267 (* (- 2.0) A_5) (* 2.0 A_3) ?x420 S_0) 0.0)))
 (let (($x58325 (or $x66 $x43633 (<= (+ ?x282 A_1 S_5 ?x442 L_2 ?x451 A_3 ?x420) 0.0))))
 (let ((?x1658 (* 2.0 S_2)))
 (let ((?x1646 (* (- 2.0) S_4)))
 (let ((?x440 (* (- 1.0) A_1)))
 (let (($x56 (= L_1 L_0)))
 (let (($x5280 (<= (+ (* (- (/ 1.0 3.0)) S_5) (* (- 1.0) A_0) (* (/ 4.0 3.0) S_1) L_0) 0.0)))
 (let (($x1631 (<= (+ (* (- 1.0) S_5) (* (- 1.0) L_2) A_4) 0.0)))
 (let (($x51832 (or $x66 (<= (+ S_5 ?x2262 ?x442 L_2 ?x451 A_3 (* (/ 1.0 2.0) S_1)) 0.0))))
 (let (($x15928 (<= (+ L_1 ?x440 S_5 ?x451 A_3 (* (- 2.0) S_3) (* 2.0 S_1)) 0.0)))
 (let (($x68563 (or (<= (+ (* (- (/ 1.0 3.0)) S_4) (* (/ 1.0 3.0) S_0)) (- 5.0)) (<= (+ ?x6802 ?x6841 ?x2262) (- 5.0)))))
 (let (($x24123 (<= (+ (* (/ 1.0 3.0) L_1) (* (- (/ 1.0 3.0)) A_1) (* (- (/ 2.0 3.0)) S_5) S_3) 0.0)))
 (let (($x124230 (or $x1631 (<= (+ (* (- (/ 1.0 4.0)) S_5) (* (/ 1.0 4.0) S_0)) (- 5.0)) (<= (+ (* (- (/ 1.0 3.0)) L_1) (* (/ 1.0 3.0) A_1) (* (- (/ 1.0 3.0)) S_5)) (- 5.0)))))
 (let (($x47359 (or (<= (+ (* (/ 3.0 5.0) S_5) ?x427 (* (/ 2.0 5.0) S_0)) 0.0) (<= (+ ?x6802 ?x6841 (* (/ 1.0 2.0) S_5) ?x427) 0.0))))
 (let ((?x407 (* (- 1.0) S_1)))
 (let ((?x7333 (* 5.0 L_2)))
 (let ((?x12075 (* (- 5.0) A_2)))
 (let ((?x11903 (* 5.0 A_1)))
 (let ((?x12069 (* (- 5.0) L_1)))
 (let (($x67648 (or (<= (+ S_5 L_2 ?x448 (* (- (/ 1.0 2.0)) S_3) (* (/ 1.0 2.0) S_0)) 0.0) (<= (+ ?x282 A_1 S_5 L_2 ?x448 ?x420) 0.0))))
 (let (($x29022 (<= (+ L_1 ?x440 S_5 (* (- (/ 2.0 3.0)) S_4) ?x451 A_3 (* (/ 2.0 3.0) S_0)) 0.0)))
 (let (($x41590 (<= (+ (* (- (/ 3.0 4.0)) L_1) (* (/ 3.0 4.0) A_1) (* (/ 1.0 4.0) S_5) ?x420) 0.0)))
 (let (($x10603 (<= (+ L_1 ?x440 (* (/ 1.0 2.0) S_3) (* (/ 1.0 2.0) S_0)) 0.0)))
 (let (($x41502 (or (not $x10603) (<= (+ (* (/ 2.0 5.0) S_5) ?x420 (* (/ 3.0 5.0) S_0)) 0.0))))
 (let ((?x5681 (* (/ 1.0 2.0) S_5)))
 (let ((?x40490 (+ (* (/ 1.0 2.0) L_1) (* (- (/ 1.0 2.0)) A_1) ?x5681 (* (- (/ 1.0 2.0)) A_5) (* (/ 1.0 2.0) A_3) ?x413 S_0)))
 (let (($x596 (<= 0.0 (+ ?x282 L_0))))
 (let (($x122287 (or $x66 (<= (+ ?x12069 ?x11903 S_5 ?x12075 ?x7333 (* (- 1.0) A_0) L_0) 0.0))))
 (let ((?x1290 (* (- 1.0) S_0)))
 (let ((?x5071 (* 6.0 L_2)))
 (let ((?x9626 (* (- 6.0) A_2)))
 (let ((?x10729 (* 6.0 A_1)))
 (let ((?x6242 (* (- 6.0) L_1)))
 (let (($x10260 (<= (+ (* (- 2.0) L_1) (* 2.0 A_1) S_5 ?x427 ?x1266 ?x1267) 0.0)))
 (let (($x66094 (or (<= (+ (* (- (/ 1.0 2.0)) S_3) (* (/ 1.0 2.0) S_0)) (- 5.0)) (<= (+ ?x282 A_1 ?x420) (- 5.0)))))
 (let ((?x1868 (* 4.0 L_2)))
 (let ((?x1308 (* (- 4.0) A_2)))
 (let ((?x1867 (* 4.0 A_1)))
 (let ((?x1866 (* (- 4.0) L_1)))
 (let (($x10431 (<= (+ (* (- 3.0) L_1) (* 3.0 A_1) S_5 ?x1170 ?x1167 ?x420) 0.0)))
 (let (($x14047 (<= (+ (* (- 3.0) L_1) (* 3.0 A_1) S_4 ?x1170 ?x1167 ?x413) 0.0)))
 (let (($x1862 (<= (+ (* (- 3.0) L_1) (* 3.0 A_1) ?x1170 ?x1167 S_3 ?x407) 0.0)))
 (let (($x2139 (<= (+ (* (- 3.0) S_5) (* (- 1.0) A_0) (* 4.0 S_3) L_0) 0.0)))
 (let (($x122172 (or $x1631 (<= (+ (* (- 1.0) S_5) (* (- 1.0) A_0) ?x1658 L_0) 0.0))))
 (let (($x24317 (<= (+ (* (/ 2.0 3.0) L_1) (* (- (/ 2.0 3.0)) A_1) (* (- (/ 1.0 3.0)) S_5) S_2) 0.0)))
 (let (($x8373 (<= (+ (* (- 2.0) L_1) (* 2.0 A_1) ?x1266 ?x1267 S_1 ?x1290) 0.0)))
 (let ((?x9044 (* (- 4.0) L_2)))
 (let ((?x10458 (* 4.0 A_2)))
 (let ((?x434 (* (- 1.0) S_5)))
 (let ((?x12027 (* (- 4.0) A_1)))
 (let ((?x10456 (* 4.0 L_1)))
 (let ((?x1318 (* (- 1.0) A_0)))
 (let ((?x1144 (* 3.0 A_1)))
 (let ((?x1171 (* (- 3.0) L_1)))
 (let ((?x1261 (* (- 2.0) L_2)))
 (let ((?x1153 (* 2.0 A_2)))
 (let ((?x1163 (* (- 2.0) A_1)))
 (let ((?x1141 (* 2.0 L_1)))
 (let (($x122021 (or $x56 (<= (+ L_1 ?x440 ?x427 A_2 (* (- 1.0) L_2) S_2) 0.0))))
 (let ((?x1863 (* (- 3.0) L_2)))
 (let ((?x1301 (* 3.0 A_2)))
 (let ((?x1300 (* (- 3.0) A_1)))
 (let ((?x1299 (* 3.0 L_1)))
 (let (($x1836 (<= (+ (* (- 2.0) L_1) (* 2.0 A_1) ?x1266 ?x1267 S_3 ?x413) 0.0)))
 (let (($x12032 (<= (+ (* (- 2.0) L_1) (* 2.0 A_1) S_4 ?x1266 ?x1267 ?x420) 0.0)))
 (let (($x602 (not (<= 0.0 (+ L_1 (* (- 1.0) L_2))))))
 (let (($x63879 (or $x56 $x602 (<= (+ ?x440 A_2 (* (- (/ 1.0 2.0)) S_3) (* (/ 1.0 2.0) S_0)) 0.0))))
 (let (($x122776 (or $x56 (<= (+ L_1 ?x440 A_2 (* (- 1.0) L_2) ?x420 S_1) 0.0))))
 (let (($x123771 (or $x56 (<= (+ L_1 ?x440 A_2 (* (- 1.0) L_2) ?x413 S_0) 0.0))))
 (let (($x125562 (or $x56 $x1631 (<= (+ L_1 ?x440 ?x434 A_2 (* (- 1.0) L_2) S_3) 0.0))))
 (let (($x755 (not $x66)))
 (let (($x1287 (<= (+ (* (- 2.0) L_1) (* 2.0 A_1) ?x1266 ?x1267 S_2 ?x407) 0.0)))
 (let (($x1320 (<= (+ (* (- 2.0) L_1) (* 2.0 A_1) ?x1266 ?x1267 ?x1318 S_2 L_0) 0.0)))
 (let (($x140 (>= S_5 S_4)))
 (let (($x128 (>= S_1 S_0)))
 (let (($x131 (>= S_2 S_1)))
 (let (($x134 (>= S_3 S_2)))
 (let (($x137 (>= S_4 S_3)))
 (let (($x142 (>= A_1 A_0)))
 (let (($x144 (>= A_3 A_2)))
 (let (($x145 (>= A_4 A_3)))
 (let (($x146 (>= A_5 A_4)))
 (and (<= (+ A_1 ?x282) S_4) $x146 $x145 $x144 $x142 $x137 $x134 $x131 $x128 (not (<= (+ A_2 (* (- 1.0) L_2)) S_4)) $x140 (or $x602 $x66) (or $x56 (not $x596)) (or $x66 (<= (+ ?x282 A_1 ?x442 L_2) (- 5.0))) (or $x66 $x1320) (or $x66 $x1287) (or (<= (+ ?x434 S_3) (- 5.0)) $x1631) (<= (+ (* (- 3.0) S_4) (* 4.0 S_2) ?x1290) 0.0) (or $x56 $x755 (<= (+ ?x440 ?x2262 A_2 (* (/ 1.0 2.0) S_1)) 0.0)) (<= (+ ?x1318 ?x420 (* 2.0 S_1) L_0) 0.0) (<= (+ ?x1646 ?x1318 (* 3.0 S_2) L_0) 0.0) $x125562 (or $x1631 (<= (+ (* (- (/ 2.0 3.0)) S_5) (* (/ 5.0 3.0) S_1) ?x1290) 0.0)) $x123771 $x122776 $x63879 (or $x56 (<= (+ ?x1141 ?x1163 ?x1153 ?x1261 ?x420 S_0) 0.0)) (or $x56 (<= (+ ?x1299 ?x1300 ?x427 ?x1301 ?x1863 S_0) 0.0)) (or $x66 $x12032) (or $x66 (<= (+ ?x282 A_1 ?x442 L_2 ?x1318 S_1 L_0) 0.0)) (or $x596 (<= (+ ?x1141 ?x1163 ?x427 ?x1153 ?x1261 S_1) 0.0)) (or $x1631 (<= (+ (* (- (/ 1.0 2.0)) S_5) (* (/ 1.0 2.0) S_2)) (- 5.0))) (or $x1631 (<= (+ (* (- (/ 3.0 2.0)) S_5) (* (/ 5.0 2.0) S_2) ?x1290) 0.0)) (or $x66 (<= (+ ?x1171 ?x1144 ?x1170 ?x1167 S_2 ?x1290) 0.0)) (or $x66 $x1836) (or $x1631 (<= (+ (* (- 4.0) S_5) (* 5.0 S_3) ?x1290) 0.0)) (or $x56 $x1631 (<= (+ ?x1299 ?x1300 ?x434 ?x1301 ?x1863 S_1) 0.0)) $x122021 (or $x56 (<= (+ ?x1141 ?x1163 ?x434 ?x1153 ?x1261 S_2) 0.0) $x1631) (<= (+ ?x420 (* (/ 3.0 2.0) S_1) (* (- (/ 1.0 2.0)) S_0)) 0.0) (<= (+ L_1 ?x440 S_1) 0.0) (or $x1631 (<= (+ (* (- 2.0) S_5) (* 3.0 S_3) ?x413) 0.0)) (or $x66 (<= (+ ?x1866 ?x1867 ?x1308 ?x1868 S_3 ?x1290) 0.0)) (or $x66 (<= (+ ?x12069 ?x11903 S_4 ?x12075 ?x7333 ?x1290) 0.0)) (or $x66 (<= (+ ?x1866 ?x1867 S_4 ?x1308 ?x1868 ?x1318 L_0) 0.0)) (or $x66 (<= (+ ?x1171 ?x1144 ?x1170 ?x1167 ?x1318 S_3 L_0) 0.0)) (or $x56 $x1631 (<= (+ ?x10456 ?x12027 ?x434 ?x10458 ?x9044 S_0) 0.0)) (or $x66 $x8373) (or $x1631 (<= (+ (* (- (/ 1.0 3.0)) S_5) (* (/ 1.0 3.0) S_1)) (- 5.0))) (<= (+ L_1 ?x440 ?x427 ?x1658) 0.0) (or $x1631 (<= (+ ?x434 ?x1658 ?x407) 0.0)) (or $x1631 $x24317) $x122172 (or $x1631 $x2139) (or $x1631 (<= (+ (* (- 3.0) S_5) (* 4.0 S_3) ?x407) 0.0)) (or $x66 $x1862) (or $x66 $x14047) (or $x66 (<= (+ ?x1866 ?x1867 S_4 ?x1308 ?x1868 ?x407) 0.0)) (or $x66 (<= (+ ?x282 A_1 S_5 ?x1266 ?x1267 ?x451 A_3) 0.0)) (or $x66 $x10431) (or $x66 (<= (+ ?x282 A_1 S_5 ?x442 ?x1267 ?x448) 0.0)) (or $x66 (<= (+ ?x1866 ?x1867 S_5 ?x1308 ?x1868 ?x413) 0.0)) (or $x56 (<= (+ L_1 ?x440 S_5 ?x451 A_3 ?x420 S_0) 0.0)) $x66094 (or (<= (+ (* (/ 1.0 3.0) S_3) ?x413 (* (/ 2.0 3.0) S_0)) 0.0) $x17160) (or (<= (+ (* (/ 1.0 5.0) S_5) ?x413 (* (/ 4.0 5.0) S_0)) 0.0) $x17160) (<= (+ S_5 ?x2262 L_2 ?x448 (* (/ 1.0 2.0) S_1)) 0.0) (or $x66 $x10260) (or $x66 (<= (+ ?x6242 ?x10729 S_5 ?x9626 ?x5071 ?x1290) 0.0)) $x122287 (<= (+ S_5 ?x427 L_2 ?x448 S_2) 0.0) (or $x596 (<= ?x40490 0.0)) $x41502 (or $x10603 $x41590) (or $x56 $x29022) (or (<= (+ ?x413 S_0) (- 5.0)) $x17160) $x67648 (or $x56 (<= (+ L_1 ?x440 S_5 ?x427 ?x451 A_3 S_1) 0.0)) (or $x66 (<= (+ ?x12069 ?x11903 S_5 ?x12075 ?x7333 ?x407) 0.0)) $x47359 $x124230 (or $x1631 $x24123) $x68563 (or $x56 $x15928) $x51832 (or $x1631 $x5280) (or $x66 (<= (+ S_5 ?x427 ?x442 L_2 ?x451 A_3 S_2) 0.0)) (or $x56 (<= (+ L_1 ?x440 S_5 ?x1646 ?x451 A_3 ?x1658) 0.0)) (or $x17160 (<= (+ S_5 L_2 ?x448 ?x413 S_0) 0.0)) $x58325 $x124441 (or (<= (+ (* (/ 1.0 4.0) S_4) ?x413 (* (/ 3.0 4.0) S_0)) 0.0) $x17160) $x56358 $x124400 $x125916 $x122403 $x39 (<= (+ ?x1318 S_0 L_0) 0.0) (<= (+ ?x2262 (* (/ 1.0 2.0) S_1)) (- 5.0)) (<= (+ ?x427 S_2) (- 5.0)) (<= (+ ?x420 S_1) (- 5.0)) (<= (+ (* (/ 1.0 3.0) S_4) ?x420 (* (/ 2.0 3.0) S_1)) 0.0) (<= (+ S_5 L_2 ?x451) 0.0) (<= (+ ?x427 (* 2.0 S_1) ?x1290) 0.0) (<= (+ ?x1646 (* 3.0 S_2) ?x407) 0.0) (<= (+ S_5 L_2 ?x448 ?x420 S_1) 0.0) (<= (+ (* (/ 1.0 4.0) S_5) ?x420 (* (/ 3.0 4.0) S_1)) 0.0) (<= (+ S_5 (* (- 3.0) S_4) ?x1658) 0.0) (<= (+ S_5 ?x1646 S_1) 0.0) $x4034)))))))))))))))))))))))))))))))))))))))))))))))))))))))))))))))))))))))))))))))))))))))))))))))))))))))))))))))
(check-sat)
